% demand
num_movements = 27;
loading_factor = [1150, 1050, 950, 1500, 1600, 1850, 1950, 1500, 900, 1700, 1650, 1750, 950, 1950, 1300, 1850, 1450, 1900, 1650, 1050, 1650, 1150, 1750, 1300, 950, 1850, 1300];
pickup_time = [0, 0, 0, 0, 0, 0, 0, 1, 1, 1, 1, 1, 1, 2, 3, 3, 3, 3, 3, 3, 3, 4, 4, 5, 5, 5, 5];
delivery_time = [1, 2, 1, 2, 1, 1, 1, 3, 2, 2, 2, 2, 2, 3, 4, 4, 4, 4, 4, 4, 4, 6, 5, 6, 6, 6, 6];

% transporter definition
total_capacity = 11000;
num_decks = 4;
capacity = [3000, 3000, 1000, 4000];

% ways out of decks
num_ways_out = 2;
paths_out = array3d(decks, ways_out, decks, [
% ways out of deck d1
2, 4, 0, 0, 3, 4, 0, 0, 

% ways out of deck d2
4, 0, 0, 0, 0, 0, 0, 0,	

% ways out of deck d3
4, 0, 0, 0, 0, 0, 0, 0,	

% ways out of deck d4
0, 0, 0, 0,	0, 0, 0, 0,	

]);

